# Objective value = 5
x0,1_4 0
x0,1_5 1
x0,1_11 0
x0,1_15 0
x0,1_24 0
x0,1_29 0
x0,1_35 0
x0,1_39 0
x0,1_40 0
x0,1_44 0
x0,2_4 0
x0,2_5 0
x0,2_11 0
x0,2_15 0
x0,2_24 0
x0,2_29 1
x0,2_35 0
x0,2_39 0
x0,2_40 0
x0,2_44 0
x0,3_4 0
x0,3_5 0
x0,3_11 0
x0,3_15 0
x0,3_24 0
x0,3_29 0
x0,3_35 0
x0,3_39 0
x0,3_40 1
x0,3_44 0
x0,4_4 0
x0,4_5 0
x0,4_11 0
x0,4_15 0
x0,4_24 0
x0,4_29 0
x0,4_35 0
x0,4_39 0
x0,4_40 0
x0,4_44 1
x0,5_4 0
x0,5_5 0
x0,5_11 0
x0,5_15 0
x0,5_24 0
x0,5_29 0
x0,5_35 0
x0,5_39 0
x0,5_40 0
x0,5_44 0
x0,6_4 0
x0,6_5 0
x0,6_11 0
x0,6_15 0
x0,6_24 0
x0,6_29 0
x0,6_35 0
x0,6_39 0
x0,6_40 0
x0,6_44 0
x0,7_4 0
x0,7_5 0
x0,7_11 0
x0,7_15 0
x0,7_24 0
x0,7_29 0
x0,7_35 0
x0,7_39 0
x0,7_40 0
x0,7_44 0
x0,8_4 0
x0,8_5 0
x0,8_11 0
x0,8_15 0
x0,8_24 0
x0,8_29 0
x0,8_35 0
x0,8_39 0
x0,8_40 0
x0,8_44 0
x0,9_4 0
x0,9_5 0
x0,9_11 0
x0,9_15 0
x0,9_24 0
x0,9_29 0
x0,9_35 0
x0,9_39 0
x0,9_40 0
x0,9_44 0
x0,10_4 0
x0,10_5 0
x0,10_11 0
x0,10_15 0
x0,10_24 0
x0,10_29 0
x0,10_35 0
x0,10_39 0
x0,10_40 0
x0,10_44 0
x1,2_4 0
x1,2_5 0
x1,2_11 0
x1,2_15 0
x1,2_24 1
x1,2_29 0
x1,2_35 0
x1,2_39 0
x1,2_40 0
x1,2_44 0
x1,3_4 0
x1,3_5 0
x1,3_11 0
x1,3_15 0
x1,3_24 0
x1,3_29 0
x1,3_35 1
x1,3_39 0
x1,3_40 0
x1,3_44 0
x1,4_4 0
x1,4_5 0
x1,4_11 0
x1,4_15 0
x1,4_24 0
x1,4_29 0
x1,4_35 0
x1,4_39 1
x1,4_40 0
x1,4_44 0
x1,5_4 0
x1,5_5 0
x1,5_11 0
x1,5_15 0
x1,5_24 0
x1,5_29 0
x1,5_35 0
x1,5_39 0
x1,5_40 0
x1,5_44 0
x1,6_4 0
x1,6_5 0
x1,6_11 0
x1,6_15 0
x1,6_24 0
x1,6_29 0
x1,6_35 0
x1,6_39 0
x1,6_40 0
x1,6_44 0
x1,7_4 0
x1,7_5 0
x1,7_11 0
x1,7_15 0
x1,7_24 0
x1,7_29 0
x1,7_35 0
x1,7_39 0
x1,7_40 0
x1,7_44 0
x1,8_4 0
x1,8_5 0
x1,8_11 0
x1,8_15 0
x1,8_24 0
x1,8_29 0
x1,8_35 0
x1,8_39 0
x1,8_40 0
x1,8_44 0
x1,9_4 0
x1,9_5 0
x1,9_11 0
x1,9_15 0
x1,9_24 0
x1,9_29 0
x1,9_35 0
x1,9_39 0
x1,9_40 0
x1,9_44 0
x1,10_4 0
x1,10_5 0
x1,10_11 0
x1,10_15 0
x1,10_24 0
x1,10_29 0
x1,10_35 0
x1,10_39 0
x1,10_40 0
x1,10_44 0
x2,3_4 0
x2,3_5 0
x2,3_11 1
x2,3_15 0
x2,3_24 0
x2,3_29 0
x2,3_35 0
x2,3_39 0
x2,3_40 0
x2,3_44 0
x2,4_4 0
x2,4_5 0
x2,4_11 0
x2,4_15 1
x2,4_24 0
x2,4_29 0
x2,4_35 0
x2,4_39 0
x2,4_40 0
x2,4_44 0
x2,5_4 0
x2,5_5 0
x2,5_11 0
x2,5_15 0
x2,5_24 0
x2,5_29 0
x2,5_35 0
x2,5_39 0
x2,5_40 0
x2,5_44 0
x2,6_4 0
x2,6_5 0
x2,6_11 0
x2,6_15 0
x2,6_24 0
x2,6_29 0
x2,6_35 0
x2,6_39 0
x2,6_40 0
x2,6_44 0
x2,7_4 0
x2,7_5 0
x2,7_11 0
x2,7_15 0
x2,7_24 0
x2,7_29 0
x2,7_35 0
x2,7_39 0
x2,7_40 0
x2,7_44 0
x2,8_4 0
x2,8_5 0
x2,8_11 0
x2,8_15 0
x2,8_24 0
x2,8_29 0
x2,8_35 0
x2,8_39 0
x2,8_40 0
x2,8_44 0
x2,9_4 0
x2,9_5 0
x2,9_11 0
x2,9_15 0
x2,9_24 0
x2,9_29 0
x2,9_35 0
x2,9_39 0
x2,9_40 0
x2,9_44 0
x2,10_4 0
x2,10_5 0
x2,10_11 0
x2,10_15 0
x2,10_24 0
x2,10_29 0
x2,10_35 0
x2,10_39 0
x2,10_40 0
x2,10_44 0
x3,4_4 1
x3,4_5 0
x3,4_11 0
x3,4_15 0
x3,4_24 0
x3,4_29 0
x3,4_35 0
x3,4_39 0
x3,4_40 0
x3,4_44 0
x3,5_4 0
x3,5_5 0
x3,5_11 0
x3,5_15 0
x3,5_24 0
x3,5_29 0
x3,5_35 0
x3,5_39 0
x3,5_40 0
x3,5_44 0
x3,6_4 0
x3,6_5 0
x3,6_11 0
x3,6_15 0
x3,6_24 0
x3,6_29 0
x3,6_35 0
x3,6_39 0
x3,6_40 0
x3,6_44 0
x3,7_4 0
x3,7_5 0
x3,7_11 0
x3,7_15 0
x3,7_24 0
x3,7_29 0
x3,7_35 0
x3,7_39 0
x3,7_40 0
x3,7_44 0
x3,8_4 0
x3,8_5 0
x3,8_11 0
x3,8_15 0
x3,8_24 0
x3,8_29 0
x3,8_35 0
x3,8_39 0
x3,8_40 0
x3,8_44 0
x3,9_4 0
x3,9_5 0
x3,9_11 0
x3,9_15 0
x3,9_24 0
x3,9_29 0
x3,9_35 0
x3,9_39 0
x3,9_40 0
x3,9_44 0
x3,10_4 0
x3,10_5 0
x3,10_11 0
x3,10_15 0
x3,10_24 0
x3,10_29 0
x3,10_35 0
x3,10_39 0
x3,10_40 0
x3,10_44 0
x4,5_4 0
x4,5_5 0
x4,5_11 0
x4,5_15 0
x4,5_24 0
x4,5_29 0
x4,5_35 0
x4,5_39 0
x4,5_40 0
x4,5_44 0
x4,6_4 0
x4,6_5 0
x4,6_11 0
x4,6_15 0
x4,6_24 0
x4,6_29 0
x4,6_35 0
x4,6_39 0
x4,6_40 0
x4,6_44 0
x4,7_4 0
x4,7_5 0
x4,7_11 0
x4,7_15 0
x4,7_24 0
x4,7_29 0
x4,7_35 0
x4,7_39 0
x4,7_40 0
x4,7_44 0
x4,8_4 0
x4,8_5 0
x4,8_11 0
x4,8_15 0
x4,8_24 0
x4,8_29 0
x4,8_35 0
x4,8_39 0
x4,8_40 0
x4,8_44 0
x4,9_4 0
x4,9_5 0
x4,9_11 0
x4,9_15 0
x4,9_24 0
x4,9_29 0
x4,9_35 0
x4,9_39 0
x4,9_40 0
x4,9_44 0
x4,10_4 0
x4,10_5 0
x4,10_11 0
x4,10_15 0
x4,10_24 0
x4,10_29 0
x4,10_35 0
x4,10_39 0
x4,10_40 0
x4,10_44 0
x5,6_4 0
x5,6_5 0
x5,6_11 0
x5,6_15 0
x5,6_24 0
x5,6_29 0
x5,6_35 0
x5,6_39 0
x5,6_40 0
x5,6_44 0
x5,7_4 0
x5,7_5 0
x5,7_11 0
x5,7_15 0
x5,7_24 0
x5,7_29 0
x5,7_35 0
x5,7_39 0
x5,7_40 0
x5,7_44 0
x5,8_4 0
x5,8_5 0
x5,8_11 0
x5,8_15 0
x5,8_24 0
x5,8_29 0
x5,8_35 0
x5,8_39 0
x5,8_40 0
x5,8_44 0
x5,9_4 0
x5,9_5 0
x5,9_11 0
x5,9_15 0
x5,9_24 0
x5,9_29 0
x5,9_35 0
x5,9_39 0
x5,9_40 0
x5,9_44 0
x5,10_4 0
x5,10_5 0
x5,10_11 0
x5,10_15 0
x5,10_24 0
x5,10_29 0
x5,10_35 0
x5,10_39 0
x5,10_40 0
x5,10_44 0
x6,7_4 0
x6,7_5 0
x6,7_11 0
x6,7_15 0
x6,7_24 0
x6,7_29 0
x6,7_35 0
x6,7_39 0
x6,7_40 0
x6,7_44 0
x6,8_4 0
x6,8_5 0
x6,8_11 0
x6,8_15 0
x6,8_24 0
x6,8_29 0
x6,8_35 0
x6,8_39 0
x6,8_40 0
x6,8_44 0
x6,9_4 0
x6,9_5 0
x6,9_11 0
x6,9_15 0
x6,9_24 0
x6,9_29 0
x6,9_35 0
x6,9_39 0
x6,9_40 0
x6,9_44 0
x6,10_4 0
x6,10_5 0
x6,10_11 0
x6,10_15 0
x6,10_24 0
x6,10_29 0
x6,10_35 0
x6,10_39 0
x6,10_40 0
x6,10_44 0
x7,8_4 0
x7,8_5 0
x7,8_11 0
x7,8_15 0
x7,8_24 0
x7,8_29 0
x7,8_35 0
x7,8_39 0
x7,8_40 0
x7,8_44 0
x7,9_4 0
x7,9_5 0
x7,9_11 0
x7,9_15 0
x7,9_24 0
x7,9_29 0
x7,9_35 0
x7,9_39 0
x7,9_40 0
x7,9_44 0
x7,10_4 0
x7,10_5 0
x7,10_11 0
x7,10_15 0
x7,10_24 0
x7,10_29 0
x7,10_35 0
x7,10_39 0
x7,10_40 0
x7,10_44 0
x8,9_4 0
x8,9_5 0
x8,9_11 0
x8,9_15 0
x8,9_24 0
x8,9_29 0
x8,9_35 0
x8,9_39 0
x8,9_40 0
x8,9_44 0
x8,10_4 0
x8,10_5 0
x8,10_11 0
x8,10_15 0
x8,10_24 0
x8,10_29 0
x8,10_35 0
x8,10_39 0
x8,10_40 0
x8,10_44 0
x9,10_4 0
x9,10_5 0
x9,10_11 0
x9,10_15 0
x9,10_24 0
x9,10_29 0
x9,10_35 0
x9,10_39 0
x9,10_40 0
x9,10_44 0
z0 1
z1 1
z2 1
z3 1
z4 1
z5 0
z6 0
z7 0
z8 0
z9 0
z10 0
p0 0
p1 5
p2 29
p3 40
p4 44
p5 51
p6 52
p7 53
p8 54
p9 55
p10 56
